p wcnf 190 380 381 
1 -97 -125 0 
1 -72 110 0 
1 -31 46 0 
1 -23 -9 0 
1 -161 116 0 
1 53 -105 0 
1 71 -30 0 
1 52 -114 0 
1 -98 18 0 
1 -32 148 0 
1 72 139 0 
1 -116 -52 0 
1 -137 -16 0 
1 -68 -85 0 
1 -78 -167 0 
1 -165 105 0 
1 -1 -33 0 
1 95 -37 0 
1 -19 -156 0 
1 -140 111 0 
1 -117 -32 0 
1 18 -45 0 
1 110 65 0 
1 120 137 0 
1 187 -142 0 
1 -183 186 0 
1 54 41 0 
1 176 122 0 
1 105 36 0 
1 89 120 0 
1 126 -29 0 
1 157 -138 0 
1 -117 25 0 
1 -143 1 0 
1 -40 157 0 
1 81 60 0 
1 16 -190 0 
1 144 15 0 
1 -170 -27 0 
1 131 95 0 
1 -23 -8 0 
1 -35 -9 0 
1 58 -59 0 
1 -101 -143 0 
1 -159 1 0 
1 -11 -75 0 
1 1 162 0 
1 -173 -69 0 
1 -142 136 0 
1 -129 149 0 
1 -84 -148 0 
1 -107 -113 0 
1 114 54 0 
1 116 153 0 
1 187 -87 0 
1 -76 7 0 
1 158 98 0 
1 -24 46 0 
1 131 -97 0 
1 14 38 0 
1 -133 -140 0 
1 -14 -137 0 
1 153 146 0 
1 48 -57 0 
1 22 -102 0 
1 -113 -146 0 
1 170 -53 0 
1 -54 -61 0 
1 161 13 0 
1 12 133 0 
1 190 -146 0 
1 150 -48 0 
1 -168 -90 0 
1 108 145 0 
1 -176 111 0 
1 -30 132 0 
1 -187 59 0 
1 -68 114 0 
1 -12 4 0 
1 122 -65 0 
1 179 -159 0 
1 34 59 0 
1 -6 67 0 
1 -118 -113 0 
1 157 -83 0 
1 -185 -32 0 
1 143 95 0 
1 -61 161 0 
1 97 -184 0 
1 -155 16 0 
1 -31 -26 0 
1 105 37 0 
1 149 100 0 
1 45 169 0 
1 45 -181 0 
1 -94 159 0 
1 -171 54 0 
1 -30 -38 0 
1 -124 -62 0 
1 136 -137 0 
1 -37 90 0 
1 47 180 0 
1 2 142 0 
1 -91 -144 0 
1 -47 -116 0 
1 74 -58 0 
1 51 106 0 
1 121 -119 0 
1 -162 175 0 
1 87 -27 0 
1 -102 -13 0 
1 141 114 0 
1 -188 -120 0 
1 -90 109 0 
1 -20 14 0 
1 -22 -114 0 
1 33 104 0 
1 -94 -127 0 
1 -136 120 0 
1 -65 -137 0 
1 114 101 0 
1 48 20 0 
1 110 27 0 
1 72 -99 0 
1 64 100 0 
1 -44 -61 0 
1 83 28 0 
1 -41 -126 0 
1 8 -164 0 
1 124 -182 0 
1 189 -65 0 
1 -170 -92 0 
1 -117 -71 0 
1 -173 149 0 
1 -101 -108 0 
1 122 -153 0 
1 -73 98 0 
1 145 -152 0 
1 85 147 0 
1 26 -165 0 
1 -108 -63 0 
1 -172 146 0 
1 -160 46 0 
1 -100 -151 0 
1 -59 69 0 
1 -128 179 0 
1 -9 -92 0 
1 154 -39 0 
1 13 -127 0 
1 39 165 0 
1 -31 -5 0 
1 -106 25 0 
1 85 130 0 
1 -164 -17 0 
1 121 104 0 
1 37 144 0 
1 -3 98 0 
1 68 58 0 
1 166 -67 0 
1 71 -158 0 
1 94 -141 0 
1 93 -92 0 
1 -3 124 0 
1 -117 -23 0 
1 36 -31 0 
1 -137 -90 0 
1 107 -174 0 
1 -122 123 0 
1 -48 79 0 
1 -127 -118 0 
1 151 117 0 
1 16 -11 0 
1 -98 27 0 
1 -19 -31 0 
1 -177 88 0 
1 -93 -189 0 
1 -99 180 0 
1 -61 -53 0 
1 -121 -187 0 
1 -102 -16 0 
1 -45 -3 0 
1 97 -104 0 
1 65 60 0 
1 -26 168 0 
1 -61 -37 0 
1 -167 -149 0 
1 133 114 0 
1 179 112 0 
1 -94 -129 0 
1 -51 -107 0 
1 91 106 0 
1 15 -98 0 
1 91 21 0 
1 109 141 0 
1 -94 71 0 
1 106 69 0 
1 -82 -12 0 
1 97 -135 0 
1 156 -90 0 
1 -176 64 0 
1 80 -67 0 
1 -166 77 0 
1 -43 54 0 
1 54 -74 0 
1 180 -68 0 
1 -102 103 0 
1 54 112 0 
1 -145 -115 0 
1 -67 -133 0 
1 186 -42 0 
1 -131 -55 0 
1 -64 113 0 
1 -97 -119 0 
1 -44 -118 0 
1 93 -105 0 
1 -135 -84 0 
1 -82 79 0 
1 74 116 0 
1 -91 63 0 
1 -14 -88 0 
1 182 -168 0 
1 84 -31 0 
1 -35 109 0 
1 52 71 0 
1 -152 -73 0 
1 27 -184 0 
1 129 -35 0 
1 43 -158 0 
1 -43 160 0 
1 -101 163 0 
1 92 108 0 
1 -104 84 0 
1 -69 42 0 
1 -165 -69 0 
1 59 -118 0 
1 69 -180 0 
1 137 -1 0 
1 -48 -155 0 
1 114 160 0 
1 111 57 0 
1 -72 51 0 
1 -180 176 0 
1 81 -166 0 
1 138 -122 0 
1 -71 -32 0 
1 -176 -114 0 
1 140 -187 0 
1 58 -162 0 
1 -129 -74 0 
1 155 120 0 
1 -26 -45 0 
1 -181 119 0 
1 75 -15 0 
1 -12 -67 0 
1 104 -178 0 
1 -78 132 0 
1 -84 20 0 
1 -156 34 0 
1 55 -184 0 
1 -79 124 0 
1 130 -176 0 
1 26 -116 0 
1 -86 138 0 
1 138 88 0 
1 -112 -33 0 
1 87 113 0 
1 -35 161 0 
1 -1 -168 0 
1 23 129 0 
1 -1 101 0 
1 13 125 0 
1 87 82 0 
1 163 -20 0 
1 -136 108 0 
1 36 97 0 
1 -44 -94 0 
1 47 -108 0 
1 -186 111 0 
1 -167 114 0 
1 -112 -57 0 
1 -180 -4 0 
1 -131 -55 0 
1 -110 48 0 
1 83 163 0 
1 -108 16 0 
1 132 80 0 
1 73 129 0 
1 -115 173 0 
1 187 -162 0 
1 72 75 0 
1 -26 156 0 
1 -186 25 0 
1 -6 -70 0 
1 66 38 0 
1 117 -156 0 
1 -163 -53 0 
1 -140 6 0 
1 -29 -95 0 
1 -85 119 0 
1 175 -122 0 
1 -188 76 0 
1 183 -104 0 
1 64 -174 0 
1 -52 -15 0 
1 -29 50 0 
1 123 163 0 
1 126 132 0 
1 5 -157 0 
1 147 -190 0 
1 75 -128 0 
1 -31 62 0 
1 183 -46 0 
1 151 -62 0 
1 -124 82 0 
1 -132 103 0 
1 -178 14 0 
1 130 7 0 
1 87 -27 0 
1 68 -82 0 
1 -77 159 0 
1 -139 -137 0 
1 97 -48 0 
1 43 130 0 
1 62 -82 0 
1 -164 30 0 
1 75 57 0 
1 117 63 0 
1 -181 188 0 
1 161 137 0 
1 -30 37 0 
1 -86 -20 0 
1 -156 -24 0 
1 -24 189 0 
1 -75 104 0 
1 160 -186 0 
1 41 17 0 
1 4 153 0 
1 112 188 0 
1 -184 -79 0 
1 -138 -164 0 
1 -162 149 0 
1 -80 82 0 
1 81 -108 0 
1 34 48 0 
1 -140 123 0 
1 -133 -8 0 
1 -59 -118 0 
1 -123 150 0 
1 -180 3 0 
1 76 -152 0 
1 -11 -121 0 
1 -53 -98 0 
1 -70 -177 0 
1 85 146 0 
1 -60 -147 0 
1 -145 -32 0 
1 32 25 0 
1 173 25 0 
1 -57 -150 0 
1 122 76 0 
1 32 36 0 
1 27 134 0 
1 74 -172 0 
1 41 183 0 
1 -18 49 0 
1 66 -146 0 
1 -149 -122 0 
1 112 -170 0 
1 -24 -177 0 
1 96 -91 0 
1 59 43 0 
1 138 67 0 
1 -190 -73 0 
1 -76 123 0 
1 -57 -120 0 
1 -115 -182 0 
1 189 -141 0 
1 -89 190 0 
1 134 57 0 
1 117 138 0 
